c description: Random 3-CNF over 26 variables and 111 clauses
c generator: CNFgen (0.9.2)
c copyright: (C) 2012-2022 Massimo Lauria <massimo.lauria@uniroma1.it>
c url: https://massimolauria.net/cnfgen
c command line: cnfgen --output CNF_4.28/26_bit_111_539.cnf randkcnf 3 26 111
c
p cnf 26 111
-14 22 26 0
6 17 24 0
4 -17 25 0
20 -24 -26 0
6 -19 20 0
8 9 -16 0
-8 -13 19 0
-19 24 26 0
-1 6 10 0
-3 -4 -15 0
4 -7 9 0
-8 -9 17 0
5 -18 -21 0
10 12 -22 0
-7 -14 19 0
-2 16 -19 0
-7 21 -25 0
-5 -20 -21 0
-16 19 26 0
4 -12 24 0
4 14 24 0
-6 7 -11 0
2 -12 26 0
1 -5 19 0
-2 9 11 0
3 11 24 0
2 -19 -20 0
-1 -12 23 0
6 7 -11 0
-1 -2 -24 0
-19 -23 -25 0
-9 14 -22 0
8 14 -20 0
-7 15 -16 0
1 12 -20 0
-19 20 25 0
2 12 14 0
17 21 24 0
-7 21 -24 0
-17 -24 26 0
13 14 16 0
-7 -18 23 0
-8 15 18 0
-10 -16 23 0
-1 2 -7 0
1 8 26 0
-10 -11 -16 0
-6 -9 -25 0
14 15 -16 0
-5 -11 16 0
23 24 26 0
2 8 15 0
1 -7 -16 0
7 12 15 0
-2 6 -19 0
9 24 26 0
-4 -14 26 0
3 -7 11 0
13 -21 -22 0
4 17 26 0
-3 12 -25 0
-3 15 16 0
11 -21 25 0
1 6 -24 0
4 11 -18 0
2 -15 -18 0
-2 3 25 0
1 -2 -3 0
1 -15 20 0
11 15 -18 0
-4 6 10 0
-21 -22 -23 0
-17 -19 22 0
-2 -17 24 0
2 -9 15 0
-2 -6 -11 0
17 20 21 0
12 20 22 0
-1 10 -18 0
-11 18 20 0
-1 19 20 0
2 -8 12 0
3 22 -25 0
2 -18 -26 0
-6 16 22 0
1 4 -16 0
-1 -10 -14 0
3 6 25 0
15 -16 -21 0
4 17 19 0
11 15 -21 0
-8 -25 -26 0
-3 6 -16 0
-7 -16 -17 0
-7 9 25 0
-5 23 -25 0
11 17 18 0
-2 6 16 0
9 17 26 0
2 10 -17 0
-15 -18 -23 0
-14 21 -24 0
4 -6 21 0
1 -12 15 0
3 -11 16 0
-1 10 21 0
20 25 -26 0
2 -10 -16 0
5 11 26 0
12 14 -26 0
-3 16 -25 0
